experiment/data/hgs-res/Vrp-Set-P-n50/Vrp-Set-P-n50-hgs/1.hgs1.tour
Route #1: 6 33 1 22 42 41 43 23 16
Route #2: 30 48 47 21 28 2
Route #3: 45 29 5 36 37 20 15 13 27
Route #4: 4 34 46
Route #5: 7 38 11 14 19 35 8
Route #6: 12 39 9 32 44 3 40
Route #7: 26 10 31 25 18 24 49 17
Cost 559.863
